/*********************************************
    * Lab01 - FCR
    * Author: Coso
    * Creation Date: Mar, 2019
    *********************************************/
instance_name = "medium_instance_05_FCR";

d = 5;
r = 15;

SCj = [295 284 291 302 273];
Dk = [66 66 49 86 14 65 56 37 89 73 31 50 68 31 21];

Cjk = [[76 54 71 39 68 75 82 68 53 58 84 38 52 30 34]
 [48 84 61 39 37 77 33 89 81 77 56 48 78 89 33]
 [66 70 77 89 81 87 66 59 35 40 35 69 53 78 46]
 [71 82 43 70 60 76 36 42 74 48 43 35 34 63 66]
 [65 45 70 36 62 60 34 67 71 35 53 58 70 80 56]];
Fjk = [[889 621 536 339 498 855 448 509 806 582 830 412 734 672 634]
 [565 797 602 659 567 756 637 721 565 354 854 685 732 482 830]
 [744 672 883 646 605 850 854 560 446 401 442 385 348 535 691]
 [833 561 878 434 828 634 671 744 546 543 687 800 604 395 579]
 [456 326 746 869 771 387 506 613 791 764 333 660 589 713 718]];
